DIMENSION: 10
EDGE_WEIGHT_TYPE: EXPLICIT
EDGE_WEIGHT_FORMAT: FULL_MATRIX
EDGE_WEIGHT_SECTION:
32767 32767 49 35 4 32767 75 14 32767 74 
32767 32767 25 54 78 32767 32767 32767 49 32767 
49 25 32767 3 32767 32767 32767 10 85 49 
35 54 3 32767 95 99 85 33 64 32767 
4 78 32767 95 32767 24 97 32767 5 32767 
32767 32767 32767 99 24 32767 5 32767 32767 64 
75 32767 32767 85 97 5 32767 79 32767 32767 
14 32767 10 33 32767 32767 79 32767 9 47 
32767 49 85 64 5 32767 32767 9 32767 32767 
74 32767 49 32767 32767 64 32767 47 32767 32767 
EOF